c 
c U(n,d) graph
c graph gen seed     : 14489
c number of vertices : 30
c max number of edges: 500
c Euclidean distance : 0.400000
c data structure     : sparse
c
c           Graph Stats
c number of vertices  : 30
c nonisolated vertices: 30
c number of edges     : 186
c edge density        : 0.427586
c max degree          : 19
c avg degree          : 12.40
c min degree          : 3
p col 30 186
e 1 15
e 2 22
e 2 21
e 2 20
e 2 18
e 2 10
e 2 9
e 2 6
e 3 29
e 3 28
e 3 27
e 3 26
e 3 25
e 3 24
e 3 23
e 3 17
e 3 16
e 3 14
e 3 13
e 3 12
e 3 11
e 3 8
e 3 7
e 3 5
e 3 4
e 4 29
e 4 28
e 4 27
e 4 26
e 4 24
e 4 23
e 4 20
e 4 19
e 4 17
e 4 14
e 4 13
e 4 12
e 4 11
e 4 8
e 4 7
e 4 6
e 4 5
e 5 28
e 5 26
e 5 25
e 5 24
e 5 23
e 5 17
e 5 12
e 5 11
e 5 8
e 5 7
e 6 30
e 6 26
e 6 22
e 6 21
e 6 20
e 6 19
e 6 18
e 6 15
e 6 14
e 6 13
e 6 10
e 6 9
e 7 28
e 7 26
e 7 25
e 7 23
e 7 11
e 7 8
e 8 29
e 8 28
e 8 27
e 8 26
e 8 25
e 8 24
e 8 23
e 8 17
e 8 12
e 8 11
e 9 30
e 9 22
e 9 21
e 9 20
e 10 22
e 10 21
e 10 20
e 10 19
e 10 18
e 10 16
e 10 14
e 10 13
e 11 28
e 11 26
e 11 25
e 11 24
e 11 23
e 11 17
e 11 12
e 12 29
e 12 28
e 12 27
e 12 26
e 12 25
e 12 24
e 12 23
e 12 17
e 12 16
e 13 29
e 13 28
e 13 27
e 13 26
e 13 24
e 13 22
e 13 21
e 13 20
e 13 19
e 13 18
e 13 17
e 13 16
e 13 14
e 14 29
e 14 28
e 14 27
e 14 26
e 14 24
e 14 22
e 14 21
e 14 20
e 14 19
e 14 18
e 14 17
e 14 16
e 15 30
e 16 29
e 16 27
e 16 24
e 16 19
e 16 18
e 16 17
e 17 29
e 17 28
e 17 27
e 17 26
e 17 25
e 17 24
e 17 23
e 17 20
e 17 19
e 17 18
e 18 22
e 18 21
e 18 20
e 18 19
e 19 29
e 19 27
e 19 26
e 19 24
e 19 22
e 19 20
e 20 26
e 20 22
e 20 21
e 21 30
e 21 22
e 22 30
e 23 29
e 23 28
e 23 27
e 23 26
e 23 25
e 23 24
e 24 29
e 24 28
e 24 27
e 24 26
e 24 25
e 25 29
e 25 28
e 25 27
e 26 29
e 26 28
e 26 27
e 27 29
e 27 28
e 28 29
